%Mem=8Gb
%nproc=8
# b3lyp/6-31g* punch=mo iop(3/33=1) nosymm

Automagically prepared Gaussian Input: JMF 12-9-11  'DA/packmol_dimers' project

0 1
C          -2.29600         4.34800         8.65300
H          -2.28800         3.93100         7.65000
C          -1.91100         5.67500         8.85300
H          -1.61000         6.28200         8.00300
C          -1.91100         6.21800        10.13800
H          -1.60900         7.25000        10.29500
C          -2.30100         5.42800        11.22100
H          -2.30500         5.84300        12.22600
C          -2.68600         4.10400        11.01900
H          -2.98800         3.49300        11.86600
C          -2.68700         3.54700         9.73300
C          -3.19000         2.13500         9.52700
C          -4.72000         2.04100         9.42900
H          -5.02700         0.99100         9.45300
H          -5.14200         2.51900        10.31900
C          -5.29800         2.70500         8.17100
H          -5.06900         3.77500         8.17500
H          -4.82000         2.27400         7.28200
C          -6.81300         2.51600         8.03400
H          -7.09300         1.45600         8.09000
H          -7.15400         2.85700         7.04700
C          -7.62200         3.27600         9.06900
O          -7.18300         4.07200         9.87300
O          -8.93400         2.96400         8.97300
C          -9.80100         3.64900         9.89300
H          -9.73900         4.73100         9.74700
H          -9.52800         3.41500        10.92500
H         -10.80600         3.28800         9.67100
C           3.86800         2.56700        11.99300
H           3.00300         3.12000        11.64100
C           4.47700         2.92400        13.19700
H           4.08300         3.75800        13.77200
C           5.58500         2.21300        13.66100
H           6.05700         2.49000        14.59900
C           6.08100         1.14400        12.91300
H           6.94300         0.58400        13.26600
C           5.47100         0.78800        11.71100
H           5.86100        -0.04600        11.13400
C           4.35700         1.49400        11.23700
C           3.76800         1.14300         9.88900
C           4.52700         1.77200         8.71200
H           5.58100         1.48700         8.80500
H           4.16500         1.35100         7.76900
C           4.41800         3.30200         8.65200
H           4.85900         3.74300         9.55200
H           3.35900         3.59000         8.63400
C           5.09600         3.90000         7.41400
H           4.72400         3.44000         6.49000
H           4.85800         4.96900         7.32800
C           6.60900         3.78400         7.42900
O           7.28600         3.42800         8.37100
O           7.13000         4.15500         6.23800
C           8.56400         4.11200         6.15100
H           9.01500         4.78600         6.88500
H           8.80600         4.43200         5.13700
H           8.93000         3.09800         6.33200
C          -2.47100         1.02300        10.27000
C          -2.36500         1.19400         8.67000
C          -0.98800         1.43900         8.14300
C           0.11600         1.66300         8.95700
C           0.01800         1.51000        10.41600
C          -1.18000         1.13900        11.01400
C          -1.15200         0.15000        12.05000
C          -2.30400        -0.71800        11.89000
C          -3.05700        -0.26700        10.74400
C          -3.62100        -1.20500         9.89200
C          -3.52400        -1.05000         8.42600
C          -2.86900         0.03800         7.86600
C          -1.96500        -0.17700         6.76100
C          -0.81300         0.68700         6.93700
C           0.45900         0.25400         6.54300
C           1.60400         0.53800         7.36900
C           1.43500         1.25100         8.55200
C           2.26100         1.00800         9.77200
C           1.27600         1.00000        10.89400
C           1.30300         0.05800        11.91500
C           0.06400        -0.37500        12.50600
C           0.16700        -1.78900        12.82000
C          -0.94200        -2.62200        12.67700
C          -2.20300        -2.07600        12.20000
C          -2.81800        -3.05000        11.33300
C          -3.50200        -2.61800        10.19000
C          -3.34000        -3.33800         8.94100
C          -3.34700        -2.37200         7.85800
C          -2.51500        -2.56600         6.75000
C          -1.80600        -1.44200         6.19100
C          -0.48500        -1.89500         5.78100
C           0.62100        -1.06600         5.95900
C           1.87800        -1.61200         6.43400
C           2.49900        -0.63300         7.30500
C           3.20400        -1.05000         8.42500
C           3.24900        -0.27300         9.70100
C           3.04800        -1.29600        10.77200
C           2.19900        -1.11000        11.85200
C           1.48300        -2.24100        12.41000
C           1.63400        -3.52200        11.86700
C           0.47800        -4.38800        11.70500
C          -0.78600        -3.94700        12.10300
C          -1.94500        -4.21000        11.26700
C          -1.79500        -4.90300        10.06400
C          -2.51000        -4.45900         8.87800
C          -1.64000        -4.65600         7.72900
C          -1.64200        -3.72700         6.68700
C          -0.38800        -3.31300         6.08300
C           0.81900        -3.84400         6.54200
C           1.97400        -2.98000         6.71500
C           2.68000        -3.41000         7.89800
C           3.25700        -2.45500         8.74000
C           3.16100        -2.60600        10.18100
C           2.49300        -3.70900        10.72400
C           1.88100        -4.69300         9.84700
C           1.97300        -4.54700         8.46300
C           0.81800        -4.81500         7.62300
C          -0.38800        -5.21200         8.20500
C          -0.48400        -5.36300         9.65000
C           0.63000        -5.11200        10.45400

