%Mem=8Gb
%nproc=8
# b3lyp/6-31g* punch=mo iop(3/33=1) nosymm

Automagically prepared Gaussian Input: JMF 12-9-11  'DA/packmol_dimers' project

0 1
C          -4.39800         2.50400        12.52500
H          -4.20500         1.98800        13.46200
C          -5.06800         3.72600        12.53200
H          -5.39500         4.15600        13.47600
C          -5.31700         4.39500        11.33300
H          -5.83700         5.34900        11.33700
C          -4.89400         3.83200        10.12800
H          -5.08400         4.34600         9.18900
C          -4.22300         2.60800        10.12300
H          -3.89300         2.18000         9.18100
C          -3.96500         1.93100        11.32100
C          -3.31300         0.56600        11.33700
C          -4.32000        -0.59000        11.40200
H          -3.79100        -1.53300        11.57400
H          -4.96600        -0.42300        12.27000
C          -5.18500        -0.72200        10.14100
H          -5.78800         0.18200        10.00700
H          -4.53300        -0.81000         9.26200
C          -6.11000        -1.94300        10.17100
H          -6.58100        -2.09100         9.19000
H          -5.55100        -2.86600        10.37000
C          -7.23100        -1.83800        11.19000
O          -7.49900        -0.85900        11.85400
O          -7.92700        -2.99400        11.25600
C          -9.03400        -2.99700        12.17300
H          -9.76300        -2.23000        11.89900
H          -9.47500        -3.99100        12.09600
H          -8.68800        -2.80800        13.19300
C          -2.05000         0.35800        10.52300
C          -2.03100         0.42000        12.13900
C          -1.21800         1.52800        12.72700
C          -0.64100         2.53600        11.97000
C          -0.65500         2.47700        10.49600
C          -1.24600         1.41300         9.83300
C          -0.56500         0.81300         8.71200
C          -0.76100        -0.62300         8.77100
C          -1.57000        -0.92800         9.92800
C          -1.27000        -2.05400        10.68200
C          -1.25400        -1.99500        12.15800
C          -1.53600        -0.81300        12.82400
C          -0.70700        -0.41700        13.93800
C          -0.51300         1.01900        13.87900
C           0.70100         1.57600        14.29100
C           1.28700         2.64600        13.52000
C           0.63000         3.10400        12.37200
C           1.39800         3.40200        11.17600
C           0.60700         3.01100        10.02400
C           1.24000         2.46200         8.90300
C           0.63900         1.33500         8.23200
C           1.70100         0.44000         7.80100
C           1.51300        -0.94100         7.85900
C           0.25600        -1.48300         8.34800
C           0.54400        -2.67200         9.11500
C          -0.20000        -2.94000        10.26900
C           0.47100        -3.43400        11.45800
C          -0.17600        -2.84800        12.61800
C           0.59100        -2.48900        13.73100
C           0.31900        -1.24300        14.40700
C           1.58500        -0.66300        14.82600
C           1.77200         0.71700        14.76800
C           3.02700         1.26200        14.28400
C           2.72700         2.45600        13.51100
C           3.46100         2.74200        12.35900
C           2.78300         3.23100        11.16900
C           3.43700         2.64800        10.00800
C           2.68000         2.27300         8.89700
C           2.96600         1.02100         8.21500
C           3.99400         0.19500         8.67200
C           3.79900        -1.24500         8.73100
C           2.58300        -1.80200         8.33100
C           1.98200        -2.87400         9.11000
C           2.62400        -3.34600        10.25500
C           1.85200        -3.63800        11.45200
C           2.64900        -3.25300        12.60600
C           2.03000        -2.69000        13.72300
C           2.64500        -1.56000        14.40100
C           3.85200        -1.03800        13.93300
C           4.04700         0.40200        13.87300
C           4.81200         0.70200        12.67500
C           4.52400         1.85000        11.93400
C           4.50900         1.79200        10.48000
C           4.78200         0.58800         9.82700
C           5.07500        -0.60700        10.60000
C           5.09000        -0.55100        11.99400
C           4.49500        -1.62600        12.77100
C           3.90500        -2.71300        12.12200
C           3.89100        -2.77100        10.66800
C           4.46600        -1.74000         9.92300

