%Mem=8Gb
%nproc=8
# b3lyp/6-31g* punch=mo iop(3/33=1) nosymm

Automagically prepared Gaussian Input: JMF 12-9-11  'DA/packmol_dimers' project

0 1
C          -4.39800         2.50400        12.02500
H          -4.20500         1.98800        12.96200
C          -5.06800         3.72600        12.03200
H          -5.39500         4.15600        12.97600
C          -5.31700         4.39500        10.83300
H          -5.83700         5.34900        10.83700
C          -4.89400         3.83200         9.62800
H          -5.08400         4.34600         8.68900
C          -4.22300         2.60800         9.62300
H          -3.89300         2.18000         8.68100
C          -3.96500         1.93100        10.82100
C          -3.31300         0.56600        10.83700
C          -4.32000        -0.59000        10.90200
H          -3.79100        -1.53300        11.07400
H          -4.96600        -0.42300        11.77000
C          -5.18500        -0.72200         9.64100
H          -5.78800         0.18200         9.50700
H          -4.53300        -0.81000         8.76200
C          -6.11000        -1.94300         9.67100
H          -6.58100        -2.09100         8.69000
H          -5.55100        -2.86600         9.87000
C          -7.23100        -1.83800        10.69000
O          -7.49900        -0.85900        11.35400
O          -7.92700        -2.99400        10.75600
C          -9.03400        -2.99700        11.67300
H          -9.76300        -2.23000        11.39900
H          -9.47500        -3.99100        11.59600
H          -8.68800        -2.80800        12.69300
C          -2.05000         0.35800        10.02300
C          -2.03100         0.42000        11.63900
C          -1.21800         1.52800        12.22700
C          -0.64100         2.53600        11.47000
C          -0.65500         2.47700         9.99600
C          -1.24600         1.41300         9.33300
C          -0.56500         0.81300         8.21200
C          -0.76100        -0.62300         8.27100
C          -1.57000        -0.92800         9.42800
C          -1.27000        -2.05400        10.18200
C          -1.25400        -1.99500        11.65800
C          -1.53600        -0.81300        12.32400
C          -0.70700        -0.41700        13.43800
C          -0.51300         1.01900        13.37900
C           0.70100         1.57600        13.79100
C           1.28700         2.64600        13.02000
C           0.63000         3.10400        11.87200
C           1.39800         3.40200        10.67600
C           0.60700         3.01100         9.52400
C           1.24000         2.46200         8.40300
C           0.63900         1.33500         7.73200
C           1.70100         0.44000         7.30100
C           1.51300        -0.94100         7.35900
C           0.25600        -1.48300         7.84800
C           0.54400        -2.67200         8.61500
C          -0.20000        -2.94000         9.76900
C           0.47100        -3.43400        10.95800
C          -0.17600        -2.84800        12.11800
C           0.59100        -2.48900        13.23100
C           0.31900        -1.24300        13.90700
C           1.58500        -0.66300        14.32600
C           1.77200         0.71700        14.26800
C           3.02700         1.26200        13.78400
C           2.72700         2.45600        13.01100
C           3.46100         2.74200        11.85900
C           2.78300         3.23100        10.66900
C           3.43700         2.64800         9.50800
C           2.68000         2.27300         8.39700
C           2.96600         1.02100         7.71500
C           3.99400         0.19500         8.17200
C           3.79900        -1.24500         8.23100
C           2.58300        -1.80200         7.83100
C           1.98200        -2.87400         8.61000
C           2.62400        -3.34600         9.75500
C           1.85200        -3.63800        10.95200
C           2.64900        -3.25300        12.10600
C           2.03000        -2.69000        13.22300
C           2.64500        -1.56000        13.90100
C           3.85200        -1.03800        13.43300
C           4.04700         0.40200        13.37300
C           4.81200         0.70200        12.17500
C           4.52400         1.85000        11.43400
C           4.50900         1.79200         9.98000
C           4.78200         0.58800         9.32700
C           5.07500        -0.60700        10.10000
C           5.09000        -0.55100        11.49400
C           4.49500        -1.62600        12.27100
C           3.90500        -2.71300        11.62200
C           3.89100        -2.77100        10.16800
C           4.46600        -1.74000         9.42300

