%Mem=8Gb
%nproc=8
# b3lyp/6-31g* punch=mo iop(3/33=1) nosymm

Automagically prepared Gaussian Input: JMF 12-9-11  'DA/packmol_dimers' project

0 1
C           0.65500         4.80700        11.11800
H          -0.27200         4.43100        11.53900
C           1.45700         5.66700        11.87100
H           1.14600         5.95300        12.87200
C           2.65400         6.15300        11.34300
H           3.28000         6.81900        11.93100
C           3.04500         5.77300        10.05800
H           3.97800         6.14200         9.63900
C           2.24300         4.91400         9.30700
H           2.55500         4.61700         8.30900
C           1.03700         4.42300         9.82700
C           0.14300         3.56600         8.95800
C          -0.71100         4.36200         7.95800
H          -1.24100         3.65800         7.31200
H          -0.02600         4.91400         7.30000
C          -1.74300         5.32800         8.58300
H          -2.11100         4.92800         9.53400
H          -2.62100         5.37400         7.93000
C          -1.22800         6.75600         8.78900
H          -0.35900         6.78400         9.45700
H          -0.88600         7.19100         7.84100
C          -2.28400         7.67500         9.37000
O          -3.39100         7.34300         9.73500
O          -1.82900         8.94800         9.44000
C          -2.75100         9.90100         9.99300
H          -3.66200         9.95200         9.38900
H          -2.22800        10.85800         9.97800
H          -3.02200         9.62700        11.01600
C          -3.69900        -2.76300        14.57900
H          -2.89400        -2.20500        15.04900
C          -4.28700        -3.83300        15.25200
H          -3.93700        -4.10400        16.24500
C          -5.32000        -4.55700        14.65100
H          -5.77700        -5.39300        15.17300
C          -5.75700        -4.20300        13.37500
H          -6.55800        -4.76100        12.89700
C          -5.16600        -3.13100        12.70200
H          -5.51000        -2.86600        11.70700
C          -4.13200        -2.39700        13.29700
C          -3.53700        -1.17500        12.63300
C          -4.10400         0.15800        13.15000
H          -3.51500         0.97800        12.73300
H          -3.94400         0.20200        14.23300
C          -5.59300         0.41600        12.82500
H          -5.83900        -0.03000        11.85400
H          -5.73200         1.49600        12.71200
C          -6.60200        -0.07900        13.86800
H          -6.47400        -1.14200        14.10000
H          -7.62600         0.01600        13.48100
C          -6.54400         0.70000        15.16800
O          -5.83500         1.65800        15.39400
O          -7.41200         0.19100        16.07300
C          -7.44800         0.86600        17.34000
H          -8.18700         0.33000        17.93600
H          -7.74200         1.91100        17.21200
H          -6.46700         0.83200        17.82200
C           5.72500        -0.14500        12.26800
H           5.21300         0.80300        12.13200
C           7.11200        -0.20900        12.11900
H           7.66800         0.69100        11.87000
C           7.78100        -1.42300        12.28500
H           8.85900        -1.47400        12.16600
C           7.05400        -2.57300        12.60000
H           7.56400        -3.52400        12.72600
C           5.66900        -2.50600        12.74900
H           5.10800        -3.40600        12.98700
C           4.98800        -1.29200        12.58700
C           3.49900        -1.23300        12.84400
C           3.12000        -1.15700        14.33200
H           2.03600        -1.25600        14.42100
H           3.54300        -2.04000        14.83000
C           3.55700         0.13000        15.06700
H           3.53400         0.98400        14.38100
H           2.81600         0.36100        15.84000
C           4.93200         0.04400        15.73800
H           5.72700        -0.16100        15.01300
H           4.96700        -0.78500        16.45700
C           5.29700         1.31700        16.47500
O           4.65800         2.34700        16.47400
O           6.46200         1.16600        17.14900
C           6.90800         2.32400        17.87200
H           7.84700         2.03200        18.34300
H           6.17300         2.61300        18.62900
H           7.06400         3.16700        17.19300
C          -0.46100         2.31400         9.56700
C           0.71600         2.24700         8.46600
C           1.98600         1.60500         8.92100
C           2.21900         1.22300        10.23600
C           1.14700         1.28500        11.23900
C          -0.13100         1.72000        10.89600
C          -1.27000         1.01500        11.39400
C          -2.28300         0.97300        10.32900
C          -1.74700         1.65900         9.18000
C          -1.98500         1.16100         7.90400
C          -0.90800         1.09500         6.89600
C           0.37300         1.53600         7.19700
C           1.50500         0.73600         6.80200
C           2.49200         0.78200         7.86500
C           3.27300        -0.34700         8.14900
C           3.55300        -0.70400         9.51400
C           3.04300         0.08200        10.54000
C           2.62500        -0.48000        11.85800
C           1.32400         0.19600        12.15000
C           0.20400        -0.48500        12.62300
C          -1.11400        -0.04700        12.28200
C          -2.04800        -1.21100        12.32800
C          -3.16500        -1.26000        11.16500
C          -3.11800        -0.12900        10.18500
C          -3.34100        -0.65000         8.86900
C          -2.80000        -0.01500         7.74400
C          -2.26200        -0.81000         6.65500
C          -1.09200        -0.12700         6.13800
C           0.01100        -0.87400         5.71000
C           1.34000        -0.43300         6.05400
C           2.14800        -1.60600         6.34900
C           3.08900        -1.56200         7.37700
C           3.24600        -2.68900         8.27700
C           3.53800        -2.17700         9.60100
C           3.02000        -2.81600        10.71800
C           2.60800        -2.09000        11.95700
C           1.29500        -2.70100        12.32800
C           0.18700        -1.95300        12.71000
C          -1.15000        -2.40000        12.41700
C          -1.34700        -3.55100        11.66400
C          -2.35900        -3.59500        10.59200
C          -3.14700        -2.48900        10.31400
C          -3.36400        -2.10000         8.94300
C          -2.85700        -2.86200         7.88600
C          -2.29400        -2.20300         6.72000
C          -1.14700        -2.97900         6.28000
C          -0.01400        -2.32700         5.78800
C           1.30900        -2.77900         6.17800
C           1.45000        -3.86500         7.04500
C           2.44100        -3.82300         8.11000
C           1.87600        -4.46400         9.27000
C           2.14800        -3.95000        10.54200
C           1.08900        -3.87400        11.53300
C          -0.20600        -4.30300        11.21300
C          -0.48500        -4.82500         9.88700
C           0.53200        -4.90800         8.93700
C           0.27200        -4.54100         7.55600
C          -1.00300        -4.10800         7.18100
C          -2.06500        -4.03200         8.17200
C          -1.81100        -4.38000         9.50400

