%Mem=8Gb
%nproc=8
# b3lyp/6-31g* punch=mo iop(3/33=1) nosymm

Automagically prepared Gaussian Input: JMF 12-9-11  'DA/packmol_dimers' project

0 1
C          -4.39800         2.50400        26.22500
H          -4.20500         1.98800        27.16200
C          -5.06800         3.72600        26.23200
H          -5.39500         4.15600        27.17600
C          -5.31700         4.39500        25.03300
H          -5.83700         5.34900        25.03700
C          -4.89400         3.83200        23.82800
H          -5.08400         4.34600        22.88900
C          -4.22300         2.60800        23.82300
H          -3.89300         2.18000        22.88100
C          -3.96500         1.93100        25.02100
C          -3.31300         0.56600        25.03700
C          -4.32000        -0.59000        25.10200
H          -3.79100        -1.53300        25.27400
H          -4.96600        -0.42300        25.97000
C          -5.18500        -0.72200        23.84100
H          -5.78800         0.18200        23.70700
H          -4.53300        -0.81000        22.96200
C          -6.11000        -1.94300        23.87100
H          -6.58100        -2.09100        22.89000
H          -5.55100        -2.86600        24.07000
C          -7.23100        -1.83800        24.89000
O          -7.49900        -0.85900        25.55400
O          -7.92700        -2.99400        24.95600
C          -9.03400        -2.99700        25.87300
H          -9.76300        -2.23000        25.59900
H          -9.47500        -3.99100        25.79600
H          -8.68800        -2.80800        26.89300
C          -2.05000         0.35800        24.22300
C          -2.03100         0.42000        25.83900
C          -1.21800         1.52800        26.42700
C          -0.64100         2.53600        25.67000
C          -0.65500         2.47700        24.19600
C          -1.24600         1.41300        23.53300
C          -0.56500         0.81300        22.41200
C          -0.76100        -0.62300        22.47100
C          -1.57000        -0.92800        23.62800
C          -1.27000        -2.05400        24.38200
C          -1.25400        -1.99500        25.85800
C          -1.53600        -0.81300        26.52400
C          -0.70700        -0.41700        27.63800
C          -0.51300         1.01900        27.57900
C           0.70100         1.57600        27.99100
C           1.28700         2.64600        27.22000
C           0.63000         3.10400        26.07200
C           1.39800         3.40200        24.87600
C           0.60700         3.01100        23.72400
C           1.24000         2.46200        22.60300
C           0.63900         1.33500        21.93200
C           1.70100         0.44000        21.50100
C           1.51300        -0.94100        21.55900
C           0.25600        -1.48300        22.04800
C           0.54400        -2.67200        22.81500
C          -0.20000        -2.94000        23.96900
C           0.47100        -3.43400        25.15800
C          -0.17600        -2.84800        26.31800
C           0.59100        -2.48900        27.43100
C           0.31900        -1.24300        28.10700
C           1.58500        -0.66300        28.52600
C           1.77200         0.71700        28.46800
C           3.02700         1.26200        27.98400
C           2.72700         2.45600        27.21100
C           3.46100         2.74200        26.05900
C           2.78300         3.23100        24.86900
C           3.43700         2.64800        23.70800
C           2.68000         2.27300        22.59700
C           2.96600         1.02100        21.91500
C           3.99400         0.19500        22.37200
C           3.79900        -1.24500        22.43100
C           2.58300        -1.80200        22.03100
C           1.98200        -2.87400        22.81000
C           2.62400        -3.34600        23.95500
C           1.85200        -3.63800        25.15200
C           2.64900        -3.25300        26.30600
C           2.03000        -2.69000        27.42300
C           2.64500        -1.56000        28.10100
C           3.85200        -1.03800        27.63300
C           4.04700         0.40200        27.57300
C           4.81200         0.70200        26.37500
C           4.52400         1.85000        25.63400
C           4.50900         1.79200        24.18000
C           4.78200         0.58800        23.52700
C           5.07500        -0.60700        24.30000
C           5.09000        -0.55100        25.69400
C           4.49500        -1.62600        26.47100
C           3.90500        -2.71300        25.82200
C           3.89100        -2.77100        24.36800
C           4.46600        -1.74000        23.62300

